[VALIDATOR STDOUT]
Checking plan: /home/jfan5/Safety-gen/runs/benchmark/optic/grid_20260205_115226/grid/optic_results/grid_x9_y9_sh2_k4_l4_s9001.plan
Plan executed successfully - checking goal
Plan valid
Final value: 68 

Successful plans:
Value: 68
 /home/jfan5/Safety-gen/runs/benchmark/optic/grid_20260205_115226/grid/optic_results/grid_x9_y9_sh2_k4_l4_s9001.plan 68
